88 6 8 46 3 1 4 100 70 
95 63 76 51 84 85 89 91 
92 62 33 28 27 29 31 30 26 34 50 32 56 
65 59 75 86 57 99 90 
14 47 16 15 12 11 9 87 97 74 66 
5 45 2 7 79 73 78 60 55 
61 71 67 94 81 54 96 93 80 
69 98 53 10 13 17 
72 36 39 42 44 41 38 40 35 37 43 68 
82 52 83 64 23 21 18 19 49 22 20 24 48 25 77 58 
